
Gurobi 6.5.2 (linux64) logging started Tue Sep 20 21:16:46 2016


Gurobi 6.5.2 (linux64) logging started Tue Sep 20 21:16:46 2016

Optimize a model with 101 rows, 663 columns and 1355 nonzeros
Coefficient statistics:
  Matrix range    [1e+00, 2e+00]
  Objective range [2e+00, 1e+02]
  Bounds range    [1e+00, 1e+00]
  RHS range       [1e+00, 1e+00]
Presolve removed 38 rows and 25 columns
Presolve time: 0.00s
Presolved: 63 rows, 638 columns, 1284 nonzeros
Variable types: 0 continuous, 638 integer (638 binary)
Found heuristic solution: objective 2405.0000000

Root relaxation: objective 6.930000e+02, 62 iterations, 0.00 seconds

    Nodes    |    Current Node    |     Objective Bounds      |     Work
 Expl Unexpl |  Obj  Depth IntInf | Incumbent    BestBd   Gap | It/Node Time

     0     0  693.00000    0   10 2405.00000  693.00000  71.2%     -    0s
     0     0  705.50000    0    4 2405.00000  705.50000  70.7%     -    0s
     0     0  715.50000    0   10 2405.00000  715.50000  70.2%     -    0s
     0     0  717.00000    0    8 2405.00000  717.00000  70.2%     -    0s
     0     0  718.00000    0   14 2405.00000  718.00000  70.1%     -    0s
     0     0  718.00000    0   14 2405.00000  718.00000  70.1%     -    0s
     0     2  718.00000    0   14 2405.00000  718.00000  70.1%     -    0s
*    3     2               3     719.0000000  718.50000  0.07%   2.3    0s

Cutting planes:
  Cover: 10
  MIR: 1
  Zero half: 5
  Lazy constraints: 15

Explored 4 nodes (103 simplex iterations) in 0.05 seconds
Thread count was 8 (of 8 available processors)

Optimal solution found (tolerance 1.00e-04)
Best objective 7.190000000000e+02, best bound 7.190000000000e+02, gap 0.0%
